unsat
(forall ((A (_ BitVec 5))
         (B (_ BitVec 5))
         (C (_ BitVec 1))
         (D (_ BitVec 1))
         (E (_ BitVec 1))
         (F (_ BitVec 1))
         (G (_ BitVec 1))
         (H (_ BitVec 1))
         (I (_ BitVec 1))
         (J (_ BitVec 1))
         (K (_ BitVec 5))
         (L (_ BitVec 32))
         (M (_ BitVec 1))
         (N (_ BitVec 32))
         (O (_ BitVec 1))
         (P (_ BitVec 1))
         (Q (_ BitVec 1))
         (R (_ BitVec 1))
         (S (_ BitVec 1))
         (T (_ BitVec 1))
         (U (_ BitVec 1))
         (V (_ BitVec 1))
         (W (_ BitVec 1))
         (X (_ BitVec 1))
         (Y (_ BitVec 1))
         (Z (_ BitVec 1))
         (A1 (_ BitVec 1))
         (B1 (_ BitVec 1))
         (C1 (_ BitVec 1))
         (D1 (_ BitVec 1))
         (E1 (_ BitVec 1))
         (F1 (_ BitVec 1))
         (G1 (_ BitVec 1))
         (H1 (_ BitVec 1))
         (I1 (_ BitVec 1))
         (J1 (_ BitVec 1))
         (K1 (_ BitVec 2))
         (L1 (_ BitVec 1))
         (M1 (_ BitVec 1))
         (N1 (_ BitVec 1))
         (O1 (_ BitVec 1))
         (P1 (_ BitVec 1))
         (Q1 (_ BitVec 1))
         (R1 (_ BitVec 1))
         (S1 (_ BitVec 8))
         (T1 (_ BitVec 1))
         (U1 (_ BitVec 1))
         (V1 (_ BitVec 1))
         (W1 (_ BitVec 32))
         (X1 (_ BitVec 32))
         (Y1 (_ BitVec 32))
         (Z1 (_ BitVec 1))
         (A2 (_ BitVec 1))
         (B2 (_ BitVec 1))
         (C2 (_ BitVec 32))
         (D2 (_ BitVec 1))
         (E2 (_ BitVec 1))
         (F2 (_ BitVec 1))
         (G2 (_ BitVec 1))
         (H2 (_ BitVec 1))
         (I2 (_ BitVec 1))
         (J2 (_ BitVec 1))
         (K2 (_ BitVec 1))
         (L2 (_ BitVec 1))
         (M2 (_ BitVec 1))
         (N2 (_ BitVec 1))
         (O2 (_ BitVec 1))
         (P2 (_ BitVec 32))
         (Q2 (_ BitVec 32))
         (R2 (_ BitVec 32))
         (S2 (_ BitVec 1))
         (T2 (_ BitVec 1))
         (U2 (_ BitVec 1))
         (V2 (_ BitVec 4))
         (W2 (_ BitVec 1))
         (X2 (Array (_ BitVec 5) (_ BitVec 32)))
         (Y2 (_ BitVec 1))
         (Z2 (_ BitVec 1))
         (A3 (_ BitVec 1))
         (B3 (_ BitVec 1))
         (C3 (_ BitVec 1))
         (D3 (_ BitVec 1))
         (E3 (_ BitVec 1))
         (F3 (_ BitVec 1))
         (G3 (_ BitVec 1))
         (H3 (_ BitVec 2))
         (I3 (_ BitVec 1))
         (J3 (_ BitVec 1))
         (K3 (_ BitVec 1))
         (L3 (_ BitVec 1))
         (M3 (_ BitVec 32))
         (N3 (_ BitVec 1))
         (O3 (_ BitVec 32))
         (P3 (_ BitVec 1))
         (Q3 (_ BitVec 1))
         (R3 (_ BitVec 5))
         (S3 (_ BitVec 1))
         (T3 (_ BitVec 1))
         (U3 (_ BitVec 5))
         (V3 (_ BitVec 1))
         (W3 (_ BitVec 1))
         (X3 (_ BitVec 5))
         (Y3 (_ BitVec 32))
         (Z3 (_ BitVec 1))
         (A4 (_ BitVec 32))
         (B4 (_ BitVec 16))
         (C4 (_ BitVec 32))
         (D4 (_ BitVec 1))
         (E4 (_ BitVec 1))
         (F4 (_ BitVec 32))
         (G4 (_ BitVec 32))
         (H4 (_ BitVec 32))
         (I4 (_ BitVec 8))
         (J4 (_ BitVec 32))
         (K4 (_ BitVec 1))
         (L4 (_ BitVec 32))
         (M4 (_ BitVec 5))
         (N4 (_ BitVec 32)))
  (! (let ((a!1 (or (not (= ((_ extract 0 0) K1) #b1)) (not (= F #b1))))
           (a!2 (or (not (= K4 #b1))
                    (not (= Q3 #b1))
                    (not (= ((_ extract 0 0) S1) #b1)))))
     (let ((a!3 (and (or (not (= K4 #b1))
                         (not (= K1 #b00))
                         (not (= Q3 #b1))
                         (not (= L2 #b1)))
                     (or (not (= K4 #b1))
                         (not (= D2 #b1))
                         (not ((_ bit2bool 0) S2)))
                     (or (not (= K4 #b0)) (= F #b0))
                     (or (= M #b1) (= T1 #b0) (not (= L3 #b1)) (= F #b0))
                     (or (= M #b1) (= T1 #b0) (not (= F #b1)) (not (= O1 #b1)))
                     (or (not (= K4 #b1))
                         (not (= R #b0))
                         (not (= U2 #b1))
                         (not (= G1 #b1)))
                     (or (= S2 #b0) (not ((_ bit2bool 0) F)))
                     (or (not (= K4 #b1))
                         (= M #b1)
                         (= T1 #b0)
                         (not (= F3 #b1))
                         (not ((_ bit2bool 0) A2)))
                     (or (not ((_ bit2bool 0) F)) (not (= L2 #b0)))
                     a!1
                     a!2
                     (or (not (= K4 #b1))
                         (= M #b1)
                         (= T1 #b0)
                         (not (= A3 #b1))
                         (not ((_ bit2bool 0) A2)))
                     (or (not (= K4 #b1))
                         (not (= Q3 #b1))
                         (= S2 #b0)
                         (not (= L2 #b1)))
                     (or (not (= F #b1)) (= R2 P2))
                     (or (not (= J2 #b0)) (= N1 #b0)))))
       (= (INV!slice!1 A
                       B
                       C
                       D
                       E
                       F
                       G
                       H
                       I
                       J
                       K
                       L
                       M
                       N
                       O
                       P
                       Q
                       R
                       S
                       T
                       U
                       V
                       W
                       X
                       Y
                       Z
                       A1
                       B1
                       C1
                       D1
                       E1
                       F1
                       G1
                       H1
                       I1
                       J1
                       K1
                       L1
                       M1
                       N1
                       O1
                       P1
                       Q1
                       R1
                       S1
                       T1
                       U1
                       V1
                       W1
                       X1
                       Y1
                       Z1
                       A2
                       B2
                       C2
                       D2
                       E2
                       F2
                       G2
                       H2
                       I2
                       J2
                       K2
                       L2
                       M2
                       N2
                       O2
                       P2
                       Q2
                       R2
                       S2
                       T2
                       U2
                       V2
                       W2
                       X2
                       Y2
                       Z2
                       A3
                       B3
                       C3
                       D3
                       E3
                       F3
                       G3
                       H3
                       I3
                       J3
                       K3
                       L3
                       M3
                       N3
                       O3
                       P3
                       Q3
                       R3
                       S3
                       T3
                       U3
                       V3
                       W3
                       X3
                       Y3
                       Z3
                       A4
                       B4
                       C4
                       D4
                       E4
                       F4
                       G4
                       H4
                       I4
                       J4
                       K4
                       L4
                       M4
                       N4)
          a!3)))
     :weight 0))
